Graphene
2.4606
+0.5000000000000000  +0.8660254037844 0.0000000
-0.5000000000000000   0.8660254037844  0.0000000
 0.0000000000000000   0.00000000000  12.000000
  C 
  2
Direct
0.333333330 0.33333333 0.5000000000
0.666666666 0.66666666 0.50000000000
