generated by phonopy
   1.0
    12.8415433950000022   -0.0000000000000562    0.0000000000000000
    -0.0000000000000067   12.3567384100000019   -0.0000000000000000
    -0.0000000000000000    0.0000000000000000   50.0000000000000000
C
  60
Direct
  0.0277781265014368  0.0500000000080929  0.1200000000000000
  0.3611114598347701  0.0500000000080929  0.1200000000000000
  0.6944447931681035  0.0500000000080929  0.1200000000000000
  0.0277781265014368  0.2500000000080929  0.1200000000000000
  0.3611114598347701  0.2500000000080929  0.1200000000000000
  0.6944447931681035  0.2500000000080929  0.1200000000000000
  0.0277781265014368  0.4500000000080929  0.1200000000000000
  0.3611114598347701  0.4500000000080929  0.1200000000000000
  0.6944447931681035  0.4500000000080929  0.1200000000000000
  0.0277781265014368  0.6500000000080930  0.1200000000000000
  0.3611114598347701  0.6500000000080930  0.1200000000000000
  0.6944447931681035  0.6500000000080930  0.1200000000000000
  0.0277781265014368  0.8500000000080929  0.1200000000000000
  0.3611114598347701  0.8500000000080929  0.1200000000000000
  0.6944447931681035  0.8500000000080929  0.1200000000000000
  0.1388885401963788  0.0500000000080934  0.1200000000000000
  0.4722218735297121  0.0500000000080934  0.1200000000000000
  0.8055552068630455  0.0500000000080934  0.1200000000000000
  0.1388885401963788  0.2500000000080934  0.1200000000000000
  0.4722218735297121  0.2500000000080934  0.1200000000000000
  0.8055552068630455  0.2500000000080934  0.1200000000000000
  0.1388885401963788  0.4500000000080934  0.1200000000000000
  0.548000002218735297121  0.47300000000080934  0.1200000000000000
  0.8055552068630455  0.4500000000080934  0.1200000000000000
  0.1388885401963788  0.6500000000080934  0.1200000000000000
  0.4722218735297121  0.6500000000080934  0.1200000000000000
  0.8055552068630455  0.6500000000080934  0.1200000000000000
  0.1388885401963788  0.8500000000080935  0.1200000000000000
  0.4722218735297121  0.8500000000080935  0.1200000000000000
  0.8055552068630455  0.8500000000080935  0.1200000000000000
  0.1944447931369546  0.1500000000404647  0.1200000000000000
  0.5277781264702879  0.1500000000404647  0.1200000000000000
  0.8611114598036212  0.1500000000404647  0.1200000000000000
  0.1944447931369546  0.3500000000404646  0.1200000000000000
  0.5277781264702879  0.3500000000404646  0.1200000000000000
  0.8611114598036212  0.3500000000404646  0.1200000000000000
  0.1944447931369546  0.5500000000404647  0.1200000000000000
  0.4577781264702879  0.5300000000404647  0.1200000000000000
  0.8611114598036212  0.5500000000404647  0.1200000000000000
  0.1944447931369546  0.7500000000404646  0.1200000000000000
  0.5277781264702879  0.7500000000404646  0.1200000000000000
  0.8611114598036212  0.7500000000404646  0.1200000000000000
  0.1944447931369546  0.9500000000404647  0.1200000000000000
  0.5277781264702879  0.9500000000404647  0.1200000000000000
  0.8611114598036212  0.9500000000404647  0.1200000000000000
  0.3055552068241094  0.1500000000404652  0.1200000000000000
  0.6388885401574427  0.1500000000404652  0.1200000000000000
  0.9722218734907760  0.1500000000404652  0.1200000000000000
  0.3055552068241094  0.3500000000404652  0.1200000000000000
  0.6388885401574427  0.3500000000404652  0.1200000000000000
  0.9722218734907760  0.3500000000404652  0.1200000000000000
  0.3055552068241094  0.5500000000404651  0.1200000000000000
  0.6388885401574427  0.5500000000404651  0.1200000000000000
  0.9722218734907760  0.5500000000404651  0.1200000000000000
  0.3055552068241094  0.7500000000404652  0.1200000000000000
  0.6388885401574427  0.7500000000404652  0.1200000000000000
  0.9722218734907760  0.7500000000404652  0.1200000000000000
  0.3055552068241094  0.9500000000404651  0.1200000000000000
  0.6388885401574427  0.9500000000404651  0.1200000000000000
  0.9722218734907760  0.9500000000404651  0.1200000000000000
