Graphene                                
   2.46060000000000     
     0.5000000000000000    0.8703994101139714   -0.0000000000000000
    -0.5000000000000000    0.8703994101139714   -0.0000000000000000
     0.0000000000000000   -0.0000000000000000   11.9978830651549053
   C 
     2
Direct
  0.3333333300000021  0.3333333300000021  0.5000000000000000
  0.6666666659999976  0.6666666599999971  0.5000000000000000
 
  0.00000000E+00  0.00000000E+00  0.00000000E+00
  0.00000000E+00  0.00000000E+00  0.00000000E+00
