generated by phonopy                    
   1.00000000000000     
    12.8415433950000022   -0.0000000000000559    0.0000000000000000
    -0.0000000000000067   12.2872335642177841    0.0000000000000000
     0.0000000000000000    0.0000000000000000   49.6511348631067833
   C 
    58
Direct
  0.0260924137096339  0.0496344001256508  0.1199999999999974
  0.3601750343598216  0.0561597878242321  0.1199999999999974
  0.6928806474907380  0.0430700911066605  0.1199999999999974
  0.0320057353537695  0.2523641832387436  0.1199999999999974
  0.3660655573814736  0.2569693664635930  0.1199999999999974
  0.6985111181996250  0.2423165986443869  0.1199999999999974
  0.0332720919491121  0.4533732661461458  0.1199999999999974
  0.3850981921319242  0.4646461436201914  0.1199999999999974
  0.6943823671718817  0.4417108851226078  0.1199999999999974
  0.0277623758183105  0.6500059249121224  0.1199999999999974
  0.3772674031756221  0.6717711053474430  0.1199999999999974
  0.6739353253407093  0.6341548122426606  0.1199999999999974
  0.0235592240576405  0.8485674503958334  0.1199999999999974
  0.3551002278773140  0.8605560650717002  0.1199999999999974
  0.6813509460237759  0.8384786855761969  0.1199999999999974
  0.1368792189126652  0.0533083235471183  0.1199999999999974
  0.4706813061869838  0.0507291416855941  0.1199999999999974
  0.8039267683049627  0.0447258878646650  0.1199999999999974
  0.1444652641160302  0.2562833046612900  0.1199999999999974
  0.4763452488184369  0.2513737163849436  0.1199999999999974
  0.8095574818721233  0.2458534026014545  0.1199999999999974
  0.1481010520760762  0.4574055629694367  0.1199999999999974
  0.4997568184974360  0.4572864586046503  0.1199999999999974
  0.8058052807734788  0.4458947880703485  0.1199999999999974
  0.1421007272812959  0.6530696905152166  0.1199999999999974
  0.7927994406224705  0.6415646205346280  0.1199999999999974
  0.1356275195912542  0.8522662648393315  0.1199999999999974
  0.4640665806311934  0.8514199634289165  0.1199999999999974
  0.7953540183022088  0.8415086136822564  0.1199999999999974
  0.1960732316950377  0.1552741121838893  0.1199999999999974
  0.5293186938130161  0.1492708583629601  0.1199999999999974
  0.8631207810873346  0.1466916765014359  0.1199999999999974
  0.2046459816977911  0.3584913863663047  0.1199999999999974
  0.5359334193688067  0.3485800366196449  0.1199999999999974
  0.8643724804087458  0.3477337352092296  0.1199999999999974
  0.2072005593775298  0.5584353795139262  0.1199999999999974
  0.8578992727187043  0.5469303095333377  0.1199999999999974
  0.1941947192265213  0.7541052119782130  0.1199999999999974
  0.5002431815025640  0.7427135414439113  0.1199999999999974
  0.8518989479239237  0.7425944370791246  0.1199999999999974
  0.1904425181278765  0.9541465974470997  0.1199999999999974
  0.5236547511815631  0.9486262836636103  0.1199999999999974
  0.8555347358839696  0.9437166953872641  0.1199999999999974
  0.3071193525014743  0.1569299089418938  0.1199999999999974
  0.6398249656323903  0.1438402122243221  0.1199999999999974
  0.9739075862825785  0.1503655999229034  0.1199999999999974
  0.3186490539684365  0.3615213144723641  0.1199999999999974
  0.6448997721148982  0.3394439349768612  0.1199999999999974
  0.9764407759345719  0.3514325496527280  0.1199999999999974
  0.3260646746515027  0.5658451878058937  0.1199999999999974
  0.6227325968165901  0.5282288947011112  0.1199999999999974
  0.9722376241739018  0.5499940751364318  0.1199999999999974
  0.3056176328203309  0.7582891149259534  0.1199999999999974
  0.6149018078602879  0.7353538564283700  0.1199999999999974
  0.9667279080431005  0.7466267339024156  0.1199999999999974
  0.3014888817925876  0.9576834014041746  0.1199999999999974
  0.6339344426107387  0.9430306335849683  0.1199999999999974
  0.9679942646384430  0.9476358168098176  0.1199999999999974
 
  0.00000000E+00  0.00000000E+00  0.00000000E+00
  0.00000000E+00  0.00000000E+00  0.00000000E+00
  0.00000000E+00  0.00000000E+00  0.00000000E+00
  0.00000000E+00  0.00000000E+00  0.00000000E+00
  0.00000000E+00  0.00000000E+00  0.00000000E+00
  0.00000000E+00  0.00000000E+00  0.00000000E+00
  0.00000000E+00  0.00000000E+00  0.00000000E+00
  0.00000000E+00  0.00000000E+00  0.00000000E+00
  0.00000000E+00  0.00000000E+00  0.00000000E+00
  0.00000000E+00  0.00000000E+00  0.00000000E+00
  0.00000000E+00  0.00000000E+00  0.00000000E+00
  0.00000000E+00  0.00000000E+00  0.00000000E+00
  0.00000000E+00  0.00000000E+00  0.00000000E+00
  0.00000000E+00  0.00000000E+00  0.00000000E+00
  0.00000000E+00  0.00000000E+00  0.00000000E+00
  0.00000000E+00  0.00000000E+00  0.00000000E+00
  0.00000000E+00  0.00000000E+00  0.00000000E+00
  0.00000000E+00  0.00000000E+00  0.00000000E+00
  0.00000000E+00  0.00000000E+00  0.00000000E+00
  0.00000000E+00  0.00000000E+00  0.00000000E+00
  0.00000000E+00  0.00000000E+00  0.00000000E+00
  0.00000000E+00  0.00000000E+00  0.00000000E+00
  0.00000000E+00  0.00000000E+00  0.00000000E+00
  0.00000000E+00  0.00000000E+00  0.00000000E+00
  0.00000000E+00  0.00000000E+00  0.00000000E+00
  0.00000000E+00  0.00000000E+00  0.00000000E+00
  0.00000000E+00  0.00000000E+00  0.00000000E+00
  0.00000000E+00  0.00000000E+00  0.00000000E+00
  0.00000000E+00  0.00000000E+00  0.00000000E+00
  0.00000000E+00  0.00000000E+00  0.00000000E+00
  0.00000000E+00  0.00000000E+00  0.00000000E+00
  0.00000000E+00  0.00000000E+00  0.00000000E+00
  0.00000000E+00  0.00000000E+00  0.00000000E+00
  0.00000000E+00  0.00000000E+00  0.00000000E+00
  0.00000000E+00  0.00000000E+00  0.00000000E+00
  0.00000000E+00  0.00000000E+00  0.00000000E+00
  0.00000000E+00  0.00000000E+00  0.00000000E+00
  0.00000000E+00  0.00000000E+00  0.00000000E+00
  0.00000000E+00  0.00000000E+00  0.00000000E+00
  0.00000000E+00  0.00000000E+00  0.00000000E+00
  0.00000000E+00  0.00000000E+00  0.00000000E+00
  0.00000000E+00  0.00000000E+00  0.00000000E+00
  0.00000000E+00  0.00000000E+00  0.00000000E+00
  0.00000000E+00  0.00000000E+00  0.00000000E+00
  0.00000000E+00  0.00000000E+00  0.00000000E+00
  0.00000000E+00  0.00000000E+00  0.00000000E+00
  0.00000000E+00  0.00000000E+00  0.00000000E+00
  0.00000000E+00  0.00000000E+00  0.00000000E+00
  0.00000000E+00  0.00000000E+00  0.00000000E+00
  0.00000000E+00  0.00000000E+00  0.00000000E+00
  0.00000000E+00  0.00000000E+00  0.00000000E+00
  0.00000000E+00  0.00000000E+00  0.00000000E+00
  0.00000000E+00  0.00000000E+00  0.00000000E+00
  0.00000000E+00  0.00000000E+00  0.00000000E+00
  0.00000000E+00  0.00000000E+00  0.00000000E+00
  0.00000000E+00  0.00000000E+00  0.00000000E+00
  0.00000000E+00  0.00000000E+00  0.00000000E+00
  0.00000000E+00  0.00000000E+00  0.00000000E+00
