Generated by geopy
1.00
 +2.160000000000E+01 +0.000000000000E+00 +0.000000000000E+00
 +0.000000000000E+00 +1.995000000000E+01 +0.000000000000E+00
 +0.000000000000E+00 +0.000000000000E+00 +5.000000000000E+01
C  
160 
Cartesian
+3.607000000000E-01 +6.256000000000E-01 +6.000000000000E+00
+1.800600000000E+00 +6.256000000000E-01 +6.000000000000E+00
+2.520700000000E+00 +1.872500000000E+00 +6.000000000000E+00
+3.960600000000E+00 +1.872500000000E+00 +6.000000000000E+00
+4.680700000000E+00 +6.256000000000E-01 +6.000000000000E+00
+6.120600000000E+00 +6.256000000000E-01 +6.000000000000E+00
+6.840700000000E+00 +1.872500000000E+00 +6.000000000000E+00
+8.280600000000E+00 +1.872500000000E+00 +6.000000000000E+00
+9.000700000000E+00 +6.256000000000E-01 +6.000000000000E+00
+1.044060000000E+01 +6.256000000000E-01 +6.000000000000E+00
+1.116070000000E+01 +1.872500000000E+00 +6.000000000000E+00
+1.260060000000E+01 +1.872500000000E+00 +6.000000000000E+00
+1.332070000000E+01 +6.256000000000E-01 +6.000000000000E+00
+1.476060000000E+01 +6.256000000000E-01 +6.000000000000E+00
+1.548070000000E+01 +1.872500000000E+00 +6.000000000000E+00
+1.692060000000E+01 +1.872500000000E+00 +6.000000000000E+00
+1.764070000000E+01 +6.256000000000E-01 +6.000000000000E+00
+1.908060000000E+01 +6.256000000000E-01 +6.000000000000E+00
+1.980070000000E+01 +1.872500000000E+00 +6.000000000000E+00
+2.124060000000E+01 +1.872500000000E+00 +6.000000000000E+00
+3.607000000000E-01 +3.119400000000E+00 +6.000000000000E+00
+1.800600000000E+00 +3.119400000000E+00 +6.000000000000E+00
+2.520700000000E+00 +4.366300000000E+00 +6.000000000000E+00
+3.960600000000E+00 +4.366300000000E+00 +6.000000000000E+00
+4.680700000000E+00 +3.119400000000E+00 +6.000000000000E+00
+6.120600000000E+00 +3.119400000000E+00 +6.000000000000E+00
+6.840700000000E+00 +4.366300000000E+00 +6.000000000000E+00
+8.280600000000E+00 +4.366300000000E+00 +6.000000000000E+00
+9.000700000000E+00 +3.119400000000E+00 +6.000000000000E+00
+1.044060000000E+01 +3.119400000000E+00 +6.000000000000E+00
+1.116070000000E+01 +4.366300000000E+00 +6.000000000000E+00
+1.260060000000E+01 +4.366300000000E+00 +6.000000000000E+00
+1.332070000000E+01 +3.119400000000E+00 +6.000000000000E+00
+1.476060000000E+01 +3.119400000000E+00 +6.000000000000E+00
+1.548070000000E+01 +4.366300000000E+00 +6.000000000000E+00
+1.692060000000E+01 +4.366300000000E+00 +6.000000000000E+00
+1.764070000000E+01 +3.119400000000E+00 +6.000000000000E+00
+1.908060000000E+01 +3.119400000000E+00 +6.000000000000E+00
+1.980070000000E+01 +4.366300000000E+00 +6.000000000000E+00
+2.124060000000E+01 +4.366300000000E+00 +6.000000000000E+00
+3.607000000000E-01 +5.613100000000E+00 +6.000000000000E+00
+1.800600000000E+00 +5.613100000000E+00 +6.000000000000E+00
+2.520700000000E+00 +6.860000000000E+00 +6.000000000000E+00
+3.960600000000E+00 +6.860000000000E+00 +6.000000000000E+00
+4.680700000000E+00 +5.613100000000E+00 +6.000000000000E+00
+6.120600000000E+00 +5.613100000000E+00 +6.000000000000E+00
+6.840700000000E+00 +6.860000000000E+00 +6.000000000000E+00
+8.280600000000E+00 +6.860000000000E+00 +6.000000000000E+00
+9.000700000000E+00 +5.613100000000E+00 +6.000000000000E+00
+1.044060000000E+01 +5.613100000000E+00 +6.000000000000E+00
+1.116070000000E+01 +6.860000000000E+00 +6.000000000000E+00
+1.260060000000E+01 +6.860000000000E+00 +6.000000000000E+00
+1.332070000000E+01 +5.613100000000E+00 +6.000000000000E+00
+1.476060000000E+01 +5.613100000000E+00 +6.000000000000E+00
+1.548070000000E+01 +6.860000000000E+00 +6.000000000000E+00
+1.692060000000E+01 +6.860000000000E+00 +6.000000000000E+00
+1.764070000000E+01 +5.613100000000E+00 +6.000000000000E+00
+1.908060000000E+01 +5.613100000000E+00 +6.000000000000E+00
+1.980070000000E+01 +6.860000000000E+00 +6.000000000000E+00
+2.124060000000E+01 +6.860000000000E+00 +6.000000000000E+00
+3.607000000000E-01 +8.106900000000E+00 +6.000000000000E+00
+1.800600000000E+00 +8.106900000000E+00 +6.000000000000E+00
+2.520700000000E+00 +9.353800000000E+00 +6.000000000000E+00
+3.960600000000E+00 +9.353800000000E+00 +6.000000000000E+00
+4.680700000000E+00 +8.106900000000E+00 +6.000000000000E+00
+6.120600000000E+00 +8.106900000000E+00 +6.000000000000E+00
+6.840700000000E+00 +9.353800000000E+00 +6.000000000000E+00
+8.280600000000E+00 +9.353800000000E+00 +6.000000000000E+00
+9.000700000000E+00 +8.106900000000E+00 +6.000000000000E+00
+1.044060000000E+01 +8.106900000000E+00 +6.000000000000E+00
+1.116070000000E+01 +9.353800000000E+00 +6.000000000000E+00
+1.260060000000E+01 +9.353800000000E+00 +6.000000000000E+00
+1.332070000000E+01 +8.106900000000E+00 +6.000000000000E+00
+1.476060000000E+01 +8.106900000000E+00 +6.000000000000E+00
+1.548070000000E+01 +9.353800000000E+00 +6.000000000000E+00
+1.692060000000E+01 +9.353800000000E+00 +6.000000000000E+00
+1.764070000000E+01 +8.106900000000E+00 +6.000000000000E+00
+1.908060000000E+01 +8.106900000000E+00 +6.000000000000E+00
+1.980070000000E+01 +9.353800000000E+00 +6.000000000000E+00
+2.124060000000E+01 +9.353800000000E+00 +6.000000000000E+00
+3.607000000000E-01 +1.060060000000E+01 +6.000000000000E+00
+1.800600000000E+00 +1.060060000000E+01 +6.000000000000E+00
+2.520700000000E+00 +1.184750000000E+01 +6.000000000000E+00
+3.960600000000E+00 +1.184750000000E+01 +6.000000000000E+00
+4.680700000000E+00 +1.060060000000E+01 +6.000000000000E+00
+6.120600000000E+00 +1.060060000000E+01 +6.000000000000E+00
+6.840700000000E+00 +1.184750000000E+01 +6.000000000000E+00
+8.280600000000E+00 +1.184750000000E+01 +6.000000000000E+00
+9.000700000000E+00 +1.060060000000E+01 +6.000000000000E+00
+1.044060000000E+01 +1.060060000000E+01 +6.000000000000E+00
+1.116070000000E+01 +1.184750000000E+01 +6.000000000000E+00
+1.260060000000E+01 +1.184750000000E+01 +6.000000000000E+00
+1.332070000000E+01 +1.060060000000E+01 +6.000000000000E+00
+1.476060000000E+01 +1.060060000000E+01 +6.000000000000E+00
+1.548070000000E+01 +1.184750000000E+01 +6.000000000000E+00
+1.692060000000E+01 +1.184750000000E+01 +6.000000000000E+00
+1.764070000000E+01 +1.060060000000E+01 +6.000000000000E+00
+1.908060000000E+01 +1.060060000000E+01 +6.000000000000E+00
+1.980070000000E+01 +1.184750000000E+01 +6.000000000000E+00
+2.124060000000E+01 +1.184750000000E+01 +6.000000000000E+00
+3.607000000000E-01 +1.309440000000E+01 +6.000000000000E+00
+1.800600000000E+00 +1.309440000000E+01 +6.000000000000E+00
+2.520700000000E+00 +1.434130000000E+01 +6.000000000000E+00
+3.960600000000E+00 +1.434130000000E+01 +6.000000000000E+00
+4.680700000000E+00 +1.309440000000E+01 +6.000000000000E+00
+6.120600000000E+00 +1.309440000000E+01 +6.000000000000E+00
+6.840700000000E+00 +1.434130000000E+01 +6.000000000000E+00
+8.280600000000E+00 +1.434130000000E+01 +6.000000000000E+00
+9.000700000000E+00 +1.309440000000E+01 +6.000000000000E+00
+1.044060000000E+01 +1.309440000000E+01 +6.000000000000E+00
+1.116070000000E+01 +1.434130000000E+01 +6.000000000000E+00
+1.260060000000E+01 +1.434130000000E+01 +6.000000000000E+00
+1.332070000000E+01 +1.309440000000E+01 +6.000000000000E+00
+1.476060000000E+01 +1.309440000000E+01 +6.000000000000E+00
+1.548070000000E+01 +1.434130000000E+01 +6.000000000000E+00
+1.692060000000E+01 +1.434130000000E+01 +6.000000000000E+00
+1.764070000000E+01 +1.309440000000E+01 +6.000000000000E+00
+1.908060000000E+01 +1.309440000000E+01 +6.000000000000E+00
+1.980070000000E+01 +1.434130000000E+01 +6.000000000000E+00
+2.124060000000E+01 +1.434130000000E+01 +6.000000000000E+00
+3.607000000000E-01 +1.558810000000E+01 +6.000000000000E+00
+1.800600000000E+00 +1.558810000000E+01 +6.000000000000E+00
+2.520700000000E+00 +1.683500000000E+01 +6.000000000000E+00
+3.960600000000E+00 +1.683500000000E+01 +6.000000000000E+00
+4.680700000000E+00 +1.558810000000E+01 +6.000000000000E+00
+6.120600000000E+00 +1.558810000000E+01 +6.000000000000E+00
+6.840700000000E+00 +1.683500000000E+01 +6.000000000000E+00
+8.280600000000E+00 +1.683500000000E+01 +6.000000000000E+00
+9.000700000000E+00 +1.558810000000E+01 +6.000000000000E+00
+1.044060000000E+01 +1.558810000000E+01 +6.000000000000E+00
+1.116070000000E+01 +1.683500000000E+01 +6.000000000000E+00
+1.260060000000E+01 +1.683500000000E+01 +6.000000000000E+00
+1.332070000000E+01 +1.558810000000E+01 +6.000000000000E+00
+1.476060000000E+01 +1.558810000000E+01 +6.000000000000E+00
+1.548070000000E+01 +1.683500000000E+01 +6.000000000000E+00
+1.692060000000E+01 +1.683500000000E+01 +6.000000000000E+00
+1.764070000000E+01 +1.558810000000E+01 +6.000000000000E+00
+1.908060000000E+01 +1.558810000000E+01 +6.000000000000E+00
+1.980070000000E+01 +1.683500000000E+01 +6.000000000000E+00
+2.124060000000E+01 +1.683500000000E+01 +6.000000000000E+00
+3.607000000000E-01 +1.808190000000E+01 +6.000000000000E+00
+1.800600000000E+00 +1.808190000000E+01 +6.000000000000E+00
+2.520700000000E+00 +1.932880000000E+01 +6.000000000000E+00
+3.960600000000E+00 +1.932880000000E+01 +6.000000000000E+00
+4.680700000000E+00 +1.808190000000E+01 +6.000000000000E+00
+6.120600000000E+00 +1.808190000000E+01 +6.000000000000E+00
+6.840700000000E+00 +1.932880000000E+01 +6.000000000000E+00
+8.280600000000E+00 +1.932880000000E+01 +6.000000000000E+00
+9.000700000000E+00 +1.808190000000E+01 +6.000000000000E+00
+1.044060000000E+01 +1.808190000000E+01 +6.000000000000E+00
+1.116070000000E+01 +1.932880000000E+01 +6.000000000000E+00
+1.260060000000E+01 +1.932880000000E+01 +6.000000000000E+00
+1.332070000000E+01 +1.808190000000E+01 +6.000000000000E+00
+1.476060000000E+01 +1.808190000000E+01 +6.000000000000E+00
+1.548070000000E+01 +1.932880000000E+01 +6.000000000000E+00
+1.692060000000E+01 +1.932880000000E+01 +6.000000000000E+00
+1.764070000000E+01 +1.808190000000E+01 +6.000000000000E+00
+1.908060000000E+01 +1.808190000000E+01 +6.000000000000E+00
+1.980070000000E+01 +1.932880000000E+01 +6.000000000000E+00
+2.124060000000E+01 +1.932880000000E+01 +6.000000000000E+00
