Generated by geopy
1.00
 +4.193000000000E+01 +0.000000000000E+00 +0.000000000000E+00
 +0.000000000000E+00 +4.115000000000E+01 +0.000000000000E+00
 +0.000000000000E+00 +0.000000000000E+00 +5.000000000000E+01
C  
678 
Cartesian
+3.532000000000E-01 +6.040000000000E-01 +6.000000000000E+00
+1.752000000000E+00 +6.043000000000E-01 +6.000000000000E+00
+2.453800000000E+00 +1.813500000000E+00 +6.000000000000E+00
+3.852600000000E+00 +1.814500000000E+00 +6.000000000000E+00
+3.528000000000E-01 +3.021600000000E+00 +6.000000000000E+00
+1.751400000000E+00 +3.022200000000E+00 +6.000000000000E+00
+2.452600000000E+00 +4.231600000000E+00 +6.000000000000E+00
+3.851100000000E+00 +4.233000000000E+00 +6.000000000000E+00
+3.519000000000E-01 +5.439500000000E+00 +6.000000000000E+00
+1.750200000000E+00 +5.440100000000E+00 +6.000000000000E+00
+2.450200000000E+00 +6.649800000000E+00 +6.000000000000E+00
+3.848400000000E+00 +6.651200000000E+00 +6.000000000000E+00
+3.504000000000E-01 +7.857900000000E+00 +6.000000000000E+00
+1.748200000000E+00 +7.858300000000E+00 +6.000000000000E+00
+2.446300000000E+00 +9.068700000000E+00 +6.000000000000E+00
+3.843800000000E+00 +9.069400000000E+00 +6.000000000000E+00
+3.481000000000E-01 +1.027750000000E+01 +6.000000000000E+00
+1.745200000000E+00 +1.027750000000E+01 +6.000000000000E+00
+2.440700000000E+00 +1.148890000000E+01 +6.000000000000E+00
+3.837500000000E+00 +1.148860000000E+01 +6.000000000000E+00
+3.455000000000E-01 +1.269920000000E+01 +6.000000000000E+00
+1.741800000000E+00 +1.269880000000E+01 +6.000000000000E+00
+2.435200000000E+00 +1.391110000000E+01 +6.000000000000E+00
+3.831100000000E+00 +1.391020000000E+01 +6.000000000000E+00
+3.433000000000E-01 +1.512300000000E+01 +6.000000000000E+00
+1.739200000000E+00 +1.512250000000E+01 +6.000000000000E+00
+2.431300000000E+00 +1.633560000000E+01 +6.000000000000E+00
+3.826800000000E+00 +1.633490000000E+01 +6.000000000000E+00
+3.421000000000E-01 +1.754840000000E+01 +6.000000000000E+00
+1.737800000000E+00 +1.754820000000E+01 +6.000000000000E+00
+2.430000000000E+00 +1.876140000000E+01 +6.000000000000E+00
+3.825400000000E+00 +1.876140000000E+01 +6.000000000000E+00
+3.421000000000E-01 +1.997440000000E+01 +6.000000000000E+00
+1.737800000000E+00 +1.997450000000E+01 +6.000000000000E+00
+2.431300000000E+00 +2.118710000000E+01 +6.000000000000E+00
+3.826800000000E+00 +2.118780000000E+01 +6.000000000000E+00
+3.433000000000E-01 +2.239980000000E+01 +6.000000000000E+00
+1.739200000000E+00 +2.240020000000E+01 +6.000000000000E+00
+2.435200000000E+00 +2.361160000000E+01 +6.000000000000E+00
+3.831100000000E+00 +2.361250000000E+01 +6.000000000000E+00
+3.455000000000E-01 +2.482350000000E+01 +6.000000000000E+00
+1.741800000000E+00 +2.482400000000E+01 +6.000000000000E+00
+2.440700000000E+00 +2.603380000000E+01 +6.000000000000E+00
+3.837500000000E+00 +2.603410000000E+01 +6.000000000000E+00
+3.481000000000E-01 +2.724520000000E+01 +6.000000000000E+00
+1.745200000000E+00 +2.724520000000E+01 +6.000000000000E+00
+2.446300000000E+00 +2.845400000000E+01 +6.000000000000E+00
+3.843800000000E+00 +2.845330000000E+01 +6.000000000000E+00
+3.504000000000E-01 +2.966480000000E+01 +6.000000000000E+00
+1.748200000000E+00 +2.966440000000E+01 +6.000000000000E+00
+2.450200000000E+00 +3.087290000000E+01 +6.000000000000E+00
+3.848400000000E+00 +3.087150000000E+01 +6.000000000000E+00
+3.519000000000E-01 +3.208320000000E+01 +6.000000000000E+00
+1.750200000000E+00 +3.208260000000E+01 +6.000000000000E+00
+2.452600000000E+00 +3.329110000000E+01 +6.000000000000E+00
+3.851100000000E+00 +3.328970000000E+01 +6.000000000000E+00
+3.528000000000E-01 +3.450110000000E+01 +6.000000000000E+00
+1.751400000000E+00 +3.450050000000E+01 +6.000000000000E+00
+2.453800000000E+00 +3.570920000000E+01 +6.000000000000E+00
+3.852600000000E+00 +3.570820000000E+01 +6.000000000000E+00
+3.532000000000E-01 +3.691870000000E+01 +6.000000000000E+00
+1.752000000000E+00 +3.691840000000E+01 +6.000000000000E+00
+2.454300000000E+00 +3.812730000000E+01 +6.000000000000E+00
+3.853200000000E+00 +3.812690000000E+01 +6.000000000000E+00
+3.533000000000E-01 +3.933640000000E+01 +6.000000000000E+00
+1.752200000000E+00 +3.933640000000E+01 +6.000000000000E+00
+2.454300000000E+00 +4.054540000000E+01 +6.000000000000E+00
+3.853200000000E+00 +4.054580000000E+01 +6.000000000000E+00
+4.554700000000E+00 +6.054000000000E-01 +6.000000000000E+00
+5.953600000000E+00 +6.067000000000E-01 +6.000000000000E+00
+6.654100000000E+00 +1.817200000000E+00 +6.000000000000E+00
+8.053100000000E+00 +1.820200000000E+00 +6.000000000000E+00
+4.553600000000E+00 +3.024300000000E+00 +6.000000000000E+00
+5.952400000000E+00 +3.026700000000E+00 +6.000000000000E+00
+6.652500000000E+00 +4.237300000000E+00 +6.000000000000E+00
+8.051400000000E+00 +4.241700000000E+00 +6.000000000000E+00
+4.551300000000E+00 +5.443000000000E+00 +6.000000000000E+00
+5.949900000000E+00 +5.445900000000E+00 +6.000000000000E+00
+6.649100000000E+00 +6.656600000000E+00 +6.000000000000E+00
+8.047700000000E+00 +6.661700000000E+00 +6.000000000000E+00
+4.547100000000E+00 +7.861700000000E+00 +6.000000000000E+00
+5.945200000000E+00 +7.864200000000E+00 +6.000000000000E+00
+6.642700000000E+00 +9.075300000000E+00 +6.000000000000E+00
+8.040800000000E+00 +9.079600000000E+00 +6.000000000000E+00
+4.540100000000E+00 +1.028070000000E+01 +6.000000000000E+00
+5.937500000000E+00 +1.028180000000E+01 +6.000000000000E+00
+6.631900000000E+00 +1.149380000000E+01 +6.000000000000E+00
+8.029200000000E+00 +1.149580000000E+01 +6.000000000000E+00
+4.530700000000E+00 +1.270080000000E+01 +6.000000000000E+00
+5.927000000000E+00 +1.270020000000E+01 +6.000000000000E+00
+6.617700000000E+00 +1.391310000000E+01 +6.000000000000E+00
+8.013200000000E+00 +1.391220000000E+01 +6.000000000000E+00
+4.522300000000E+00 +1.512340000000E+01 +6.000000000000E+00
+5.917600000000E+00 +1.512210000000E+01 +6.000000000000E+00
+6.606500000000E+00 +1.633580000000E+01 +6.000000000000E+00
+8.000900000000E+00 +1.633430000000E+01 +6.000000000000E+00
+4.517600000000E+00 +1.754840000000E+01 +6.000000000000E+00
+5.912600000000E+00 +1.754780000000E+01 +6.000000000000E+00
+6.602600000000E+00 +1.876140000000E+01 +6.000000000000E+00
+7.996700000000E+00 +1.876140000000E+01 +6.000000000000E+00
+4.517600000000E+00 +1.997430000000E+01 +6.000000000000E+00
+5.912600000000E+00 +1.997490000000E+01 +6.000000000000E+00
+6.606500000000E+00 +2.118690000000E+01 +6.000000000000E+00
+8.000900000000E+00 +2.118840000000E+01 +6.000000000000E+00
+4.522300000000E+00 +2.239930000000E+01 +6.000000000000E+00
+5.917600000000E+00 +2.240060000000E+01 +6.000000000000E+00
+6.617700000000E+00 +2.360960000000E+01 +6.000000000000E+00
+8.013200000000E+00 +2.361050000000E+01 +6.000000000000E+00
+4.530700000000E+00 +2.482190000000E+01 +6.000000000000E+00
+5.927000000000E+00 +2.482250000000E+01 +6.000000000000E+00
+6.631900000000E+00 +2.602890000000E+01 +6.000000000000E+00
+8.029200000000E+00 +2.602690000000E+01 +6.000000000000E+00
+4.540100000000E+00 +2.724200000000E+01 +6.000000000000E+00
+5.937500000000E+00 +2.724090000000E+01 +6.000000000000E+00
+6.642700000000E+00 +2.844740000000E+01 +6.000000000000E+00
+8.040800000000E+00 +2.844310000000E+01 +6.000000000000E+00
+4.547100000000E+00 +2.966100000000E+01 +6.000000000000E+00
+5.945200000000E+00 +2.965850000000E+01 +6.000000000000E+00
+6.649100000000E+00 +3.086610000000E+01 +6.000000000000E+00
+8.047700000000E+00 +3.086110000000E+01 +6.000000000000E+00
+4.551300000000E+00 +3.207970000000E+01 +6.000000000000E+00
+5.949900000000E+00 +3.207680000000E+01 +6.000000000000E+00
+6.652500000000E+00 +3.328550000000E+01 +6.000000000000E+00
+8.051400000000E+00 +3.328100000000E+01 +6.000000000000E+00
+4.553600000000E+00 +3.449840000000E+01 +6.000000000000E+00
+5.952400000000E+00 +3.449600000000E+01 +6.000000000000E+00
+6.654100000000E+00 +3.570550000000E+01 +6.000000000000E+00
+8.053100000000E+00 +3.570250000000E+01 +6.000000000000E+00
+4.554700000000E+00 +3.691730000000E+01 +6.000000000000E+00
+5.953600000000E+00 +3.691600000000E+01 +6.000000000000E+00
+6.654700000000E+00 +3.812600000000E+01 +6.000000000000E+00
+8.053800000000E+00 +3.812500000000E+01 +6.000000000000E+00
+4.555000000000E+00 +3.933640000000E+01 +6.000000000000E+00
+5.953900000000E+00 +3.933640000000E+01 +6.000000000000E+00
+6.654700000000E+00 +4.054670000000E+01 +6.000000000000E+00
+8.053800000000E+00 +4.054780000000E+01 +6.000000000000E+00
+8.753200000000E+00 +6.094000000000E-01 +6.000000000000E+00
+1.015230000000E+01 +6.122000000000E-01 +6.000000000000E+00
+1.085030000000E+01 +1.825400000000E+00 +6.000000000000E+00
+1.224930000000E+01 +1.830600000000E+00 +6.000000000000E+00
+8.752600000000E+00 +3.031800000000E+00 +6.000000000000E+00
+1.015160000000E+01 +3.037300000000E+00 +6.000000000000E+00
+1.085000000000E+01 +4.250300000000E+00 +6.000000000000E+00
+1.224910000000E+01 +4.259100000000E+00 +6.000000000000E+00
+8.750700000000E+00 +5.453200000000E+00 +6.000000000000E+00
+1.014960000000E+01 +5.460800000000E+00 +6.000000000000E+00
+1.084830000000E+01 +6.673400000000E+00 +6.000000000000E+00
+1.224750000000E+01 +6.685500000000E+00 +6.000000000000E+00
+8.746300000000E+00 +7.873100000000E+00 +6.000000000000E+00
+1.014510000000E+01 +7.881600000000E+00 +6.000000000000E+00
+1.084340000000E+01 +9.093700000000E+00 +6.000000000000E+00
+1.224270000000E+01 +9.108100000000E+00 +6.000000000000E+00
+8.737500000000E+00 +1.029130000000E+01 +6.000000000000E+00
+1.013590000000E+01 +1.029880000000E+01 +6.000000000000E+00
+1.083210000000E+01 +1.151070000000E+01 +6.000000000000E+00
+1.223120000000E+01 +1.152410000000E+01 +6.000000000000E+00
+8.721800000000E+00 +1.270830000000E+01 +6.000000000000E+00
+1.011890000000E+01 +1.271180000000E+01 +6.000000000000E+00
+1.080920000000E+01 +1.392470000000E+01 +6.000000000000E+00
+1.220610000000E+01 +1.393160000000E+01 +6.000000000000E+00
+8.700500000000E+00 +1.512570000000E+01 +6.000000000000E+00
+1.009460000000E+01 +1.512440000000E+01 +6.000000000000E+00
+1.077670000000E+01 +1.633820000000E+01 +6.000000000000E+00
+1.216800000000E+01 +1.633670000000E+01 +6.000000000000E+00
+8.687200000000E+00 +1.754840000000E+01 +6.000000000000E+00
+1.008010000000E+01 +1.754720000000E+01 +6.000000000000E+00
+1.076410000000E+01 +1.876140000000E+01 +6.000000000000E+00
+1.215450000000E+01 +1.876140000000E+01 +6.000000000000E+00
+8.687200000000E+00 +1.997430000000E+01 +6.000000000000E+00
+1.008010000000E+01 +1.997550000000E+01 +6.000000000000E+00
+1.077670000000E+01 +2.118450000000E+01 +6.000000000000E+00
+1.216800000000E+01 +2.118600000000E+01 +6.000000000000E+00
+8.700500000000E+00 +2.239700000000E+01 +6.000000000000E+00
+1.009460000000E+01 +2.239840000000E+01 +6.000000000000E+00
+1.080920000000E+01 +2.359800000000E+01 +6.000000000000E+00
+1.220610000000E+01 +2.359120000000E+01 +6.000000000000E+00
+8.721800000000E+00 +2.481450000000E+01 +6.000000000000E+00
+1.011890000000E+01 +2.481090000000E+01 +6.000000000000E+00
+1.083210000000E+01 +2.601200000000E+01 +6.000000000000E+00
+1.223120000000E+01 +2.599860000000E+01 +6.000000000000E+00
+8.737500000000E+00 +2.723140000000E+01 +6.000000000000E+00
+1.013590000000E+01 +2.722400000000E+01 +6.000000000000E+00
+1.084340000000E+01 +2.842900000000E+01 +6.000000000000E+00
+1.224270000000E+01 +2.841470000000E+01 +6.000000000000E+00
+8.746300000000E+00 +2.964970000000E+01 +6.000000000000E+00
+1.014510000000E+01 +2.964110000000E+01 +6.000000000000E+00
+1.084830000000E+01 +3.084930000000E+01 +6.000000000000E+00
+1.224750000000E+01 +3.083720000000E+01 +6.000000000000E+00
+8.750700000000E+00 +3.206950000000E+01 +6.000000000000E+00
+1.014960000000E+01 +3.206190000000E+01 +6.000000000000E+00
+1.085000000000E+01 +3.327240000000E+01 +6.000000000000E+00
+1.224910000000E+01 +3.326360000000E+01 +6.000000000000E+00
+8.752600000000E+00 +3.449090000000E+01 +6.000000000000E+00
+1.015160000000E+01 +3.448540000000E+01 +6.000000000000E+00
+1.085030000000E+01 +3.569730000000E+01 +6.000000000000E+00
+1.224930000000E+01 +3.569210000000E+01 +6.000000000000E+00
+8.753200000000E+00 +3.691330000000E+01 +6.000000000000E+00
+1.015230000000E+01 +3.691050000000E+01 +6.000000000000E+00
+1.085020000000E+01 +3.812320000000E+01 +6.000000000000E+00
+1.224920000000E+01 +3.812150000000E+01 +6.000000000000E+00
+8.753400000000E+00 +3.933640000000E+01 +6.000000000000E+00
+1.015250000000E+01 +3.933640000000E+01 +6.000000000000E+00
+1.085020000000E+01 +4.054950000000E+01 +6.000000000000E+00
+1.224920000000E+01 +4.055120000000E+01 +6.000000000000E+00
+1.294510000000E+01 +6.162000000000E-01 +6.000000000000E+00
+1.434400000000E+01 +6.197000000000E-01 +6.000000000000E+00
+1.503800000000E+01 +1.836600000000E+00 +6.000000000000E+00
+1.643680000000E+01 +1.841000000000E+00 +6.000000000000E+00
+1.294570000000E+01 +3.045600000000E+00 +6.000000000000E+00
+1.434480000000E+01 +3.053000000000E+00 +6.000000000000E+00
+1.503930000000E+01 +4.270300000000E+00 +6.000000000000E+00
+1.643830000000E+01 +4.278600000000E+00 +6.000000000000E+00
+1.294630000000E+01 +5.473800000000E+00 +6.000000000000E+00
+1.434560000000E+01 +5.486100000000E+00 +6.000000000000E+00
+1.504100000000E+01 +6.703600000000E+00 +6.000000000000E+00
+1.644030000000E+01 +6.718000000000E+00 +6.000000000000E+00
+1.294570000000E+01 +7.899700000000E+00 +6.000000000000E+00
+1.434520000000E+01 +7.917700000000E+00 +6.000000000000E+00
+1.504210000000E+01 +9.135000000000E+00 +6.000000000000E+00
+1.644210000000E+01 +9.159200000000E+00 +6.000000000000E+00
+1.294130000000E+01 +1.032110000000E+01 +6.000000000000E+00
+1.434130000000E+01 +1.034510000000E+01 +6.000000000000E+00
+1.503990000000E+01 +1.156100000000E+01 +6.000000000000E+00
+1.644110000000E+01 +1.159980000000E+01 +6.000000000000E+00
+1.292750000000E+01 +1.273640000000E+01 +6.000000000000E+00
+1.432800000000E+01 +1.276190000000E+01 +6.000000000000E+00
+1.502450000000E+01 +1.397610000000E+01 +6.000000000000E+00
+1.642870000000E+01 +1.402920000000E+01 +6.000000000000E+00
+1.289260000000E+01 +1.514490000000E+01 +6.000000000000E+00
+1.428930000000E+01 +1.515980000000E+01 +6.000000000000E+00
+1.496830000000E+01 +1.637360000000E+01 +6.000000000000E+00
+1.636400000000E+01 +1.641230000000E+01 +6.000000000000E+00
+1.284160000000E+01 +1.755030000000E+01 +6.000000000000E+00
+1.422660000000E+01 +1.755030000000E+01 +6.000000000000E+00
+1.488690000000E+01 +1.876140000000E+01 +6.000000000000E+00
+1.625070000000E+01 +1.876140000000E+01 +6.000000000000E+00
+1.284160000000E+01 +1.997240000000E+01 +6.000000000000E+00
+1.422660000000E+01 +1.997240000000E+01 +6.000000000000E+00
+1.496830000000E+01 +2.114910000000E+01 +6.000000000000E+00
+1.636400000000E+01 +2.111050000000E+01 +6.000000000000E+00
+1.289260000000E+01 +2.237780000000E+01 +6.000000000000E+00
+1.428930000000E+01 +2.236290000000E+01 +6.000000000000E+00
+1.502450000000E+01 +2.354660000000E+01 +6.000000000000E+00
+1.642870000000E+01 +2.349350000000E+01 +6.000000000000E+00
+1.292750000000E+01 +2.478630000000E+01 +6.000000000000E+00
+1.432800000000E+01 +2.476080000000E+01 +6.000000000000E+00
+1.503990000000E+01 +2.596170000000E+01 +6.000000000000E+00
+1.644110000000E+01 +2.592290000000E+01 +6.000000000000E+00
+1.294130000000E+01 +2.720160000000E+01 +6.000000000000E+00
+1.434130000000E+01 +2.717770000000E+01 +6.000000000000E+00
+1.504210000000E+01 +2.838770000000E+01 +6.000000000000E+00
+1.644210000000E+01 +2.836350000000E+01 +6.000000000000E+00
+1.294570000000E+01 +2.962310000000E+01 +6.000000000000E+00
+1.434520000000E+01 +2.960500000000E+01 +6.000000000000E+00
+1.504100000000E+01 +3.081910000000E+01 +6.000000000000E+00
+1.644030000000E+01 +3.080470000000E+01 +6.000000000000E+00
+1.294630000000E+01 +3.204890000000E+01 +6.000000000000E+00
+1.434560000000E+01 +3.203670000000E+01 +6.000000000000E+00
+1.503930000000E+01 +3.325240000000E+01 +6.000000000000E+00
+1.643830000000E+01 +3.324410000000E+01 +6.000000000000E+00
+1.294570000000E+01 +3.447710000000E+01 +6.000000000000E+00
+1.434480000000E+01 +3.446970000000E+01 +6.000000000000E+00
+1.503800000000E+01 +3.568610000000E+01 +6.000000000000E+00
+1.643680000000E+01 +3.568170000000E+01 +6.000000000000E+00
+1.294510000000E+01 +3.690650000000E+01 +6.000000000000E+00
+1.434400000000E+01 +3.690300000000E+01 +6.000000000000E+00
+1.503730000000E+01 +3.811960000000E+01 +6.000000000000E+00
+1.643610000000E+01 +3.811830000000E+01 +6.000000000000E+00
+1.294480000000E+01 +3.933640000000E+01 +6.000000000000E+00
+1.434370000000E+01 +3.933640000000E+01 +6.000000000000E+00
+1.503730000000E+01 +4.055310000000E+01 +6.000000000000E+00
+1.643610000000E+01 +4.055440000000E+01 +6.000000000000E+00
+1.712800000000E+01 +6.227000000000E-01 +6.000000000000E+00
+1.852660000000E+01 +6.242000000000E-01 +6.000000000000E+00
+1.921720000000E+01 +1.843600000000E+00 +6.000000000000E+00
+2.061580000000E+01 +1.843600000000E+00 +6.000000000000E+00
+1.712880000000E+01 +3.059900000000E+00 +6.000000000000E+00
+1.852750000000E+01 +3.063300000000E+00 +6.000000000000E+00
+1.921720000000E+01 +4.283900000000E+00 +6.000000000000E+00
+2.061580000000E+01 +4.283900000000E+00 +6.000000000000E+00
+1.713010000000E+01 +5.498700000000E+00 +6.000000000000E+00
+1.852900000000E+01 +5.505200000000E+00 +6.000000000000E+00
+1.921710000000E+01 +6.728200000000E+00 +6.000000000000E+00
+2.061590000000E+01 +6.728200000000E+00 +6.000000000000E+00
+1.713210000000E+01 +7.939900000000E+00 +6.000000000000E+00
+1.853130000000E+01 +7.952100000000E+00 +6.000000000000E+00
+1.921710000000E+01 +9.179400000000E+00 +6.000000000000E+00
+2.061590000000E+01 +9.179400000000E+00 +6.000000000000E+00
+1.713470000000E+01 +1.038330000000E+01 +6.000000000000E+00
+1.853470000000E+01 +1.040780000000E+01 +6.000000000000E+00
+1.921720000000E+01 +1.164370000000E+01 +6.000000000000E+00
+2.061580000000E+01 +1.164370000000E+01 +6.000000000000E+00
+1.713610000000E+01 +1.282570000000E+01 +6.000000000000E+00
+1.853800000000E+01 +1.287970000000E+01 +6.000000000000E+00
+1.921670000000E+01 +1.413570000000E+01 +6.000000000000E+00
+2.061630000000E+01 +1.413570000000E+01 +6.000000000000E+00
+1.712040000000E+01 +1.525570000000E+01 +6.000000000000E+00
+1.853030000000E+01 +1.538370000000E+01 +6.000000000000E+00
+1.920870000000E+01 +1.669950000000E+01 +6.000000000000E+00
+2.062430000000E+01 +1.669950000000E+01 +6.000000000000E+00
+1.702040000000E+01 +1.762230000000E+01 +6.000000000000E+00
+1.844070000000E+01 +1.792840000000E+01 +6.000000000000E+00
+1.702040000000E+01 +1.990040000000E+01 +6.000000000000E+00
+1.844070000000E+01 +1.959430000000E+01 +6.000000000000E+00
+1.920870000000E+01 +2.082330000000E+01 +6.000000000000E+00
+2.062430000000E+01 +2.082330000000E+01 +6.000000000000E+00
+1.712040000000E+01 +2.226700000000E+01 +6.000000000000E+00
+1.853030000000E+01 +2.213900000000E+01 +6.000000000000E+00
+1.921670000000E+01 +2.338710000000E+01 +6.000000000000E+00
+2.061630000000E+01 +2.338710000000E+01 +6.000000000000E+00
+1.713610000000E+01 +2.469700000000E+01 +6.000000000000E+00
+1.853800000000E+01 +2.464300000000E+01 +6.000000000000E+00
+1.921720000000E+01 +2.587900000000E+01 +6.000000000000E+00
+2.061580000000E+01 +2.587900000000E+01 +6.000000000000E+00
+1.713470000000E+01 +2.713940000000E+01 +6.000000000000E+00
+1.853470000000E+01 +2.711490000000E+01 +6.000000000000E+00
+1.921710000000E+01 +2.834330000000E+01 +6.000000000000E+00
+2.061590000000E+01 +2.834330000000E+01 +6.000000000000E+00
+1.713210000000E+01 +2.958280000000E+01 +6.000000000000E+00
+1.853130000000E+01 +2.957070000000E+01 +6.000000000000E+00
+1.921710000000E+01 +3.079460000000E+01 +6.000000000000E+00
+2.061590000000E+01 +3.079460000000E+01 +6.000000000000E+00
+1.713010000000E+01 +3.202400000000E+01 +6.000000000000E+00
+1.852900000000E+01 +3.201750000000E+01 +6.000000000000E+00
+1.921720000000E+01 +3.323880000000E+01 +6.000000000000E+00
+2.061580000000E+01 +3.323880000000E+01 +6.000000000000E+00
+1.712880000000E+01 +3.446280000000E+01 +6.000000000000E+00
+1.852750000000E+01 +3.445940000000E+01 +6.000000000000E+00
+1.921720000000E+01 +3.567910000000E+01 +6.000000000000E+00
+2.061580000000E+01 +3.567910000000E+01 +6.000000000000E+00
+1.712800000000E+01 +3.690000000000E+01 +6.000000000000E+00
+1.852660000000E+01 +3.689850000000E+01 +6.000000000000E+00
+1.921720000000E+01 +3.811750000000E+01 +6.000000000000E+00
+2.061580000000E+01 +3.811750000000E+01 +6.000000000000E+00
+1.712770000000E+01 +3.933640000000E+01 +6.000000000000E+00
+1.852640000000E+01 +3.933640000000E+01 +6.000000000000E+00
+1.921720000000E+01 +4.055520000000E+01 +6.000000000000E+00
+2.061580000000E+01 +4.055520000000E+01 +6.000000000000E+00
+2.130640000000E+01 +6.242000000000E-01 +6.000000000000E+00
+2.270500000000E+01 +6.227000000000E-01 +6.000000000000E+00
+2.339620000000E+01 +1.841000000000E+00 +6.000000000000E+00
+2.479500000000E+01 +1.836600000000E+00 +6.000000000000E+00
+2.130550000000E+01 +3.063300000000E+00 +6.000000000000E+00
+2.270420000000E+01 +3.059900000000E+00 +6.000000000000E+00
+2.339470000000E+01 +4.278600000000E+00 +6.000000000000E+00
+2.479370000000E+01 +4.270300000000E+00 +6.000000000000E+00
+2.130400000000E+01 +5.505200000000E+00 +6.000000000000E+00
+2.270290000000E+01 +5.498700000000E+00 +6.000000000000E+00
+2.339270000000E+01 +6.718000000000E+00 +6.000000000000E+00
+2.479200000000E+01 +6.703600000000E+00 +6.000000000000E+00
+2.130170000000E+01 +7.952100000000E+00 +6.000000000000E+00
+2.270090000000E+01 +7.939900000000E+00 +6.000000000000E+00
+2.339090000000E+01 +9.159200000000E+00 +6.000000000000E+00
+2.479090000000E+01 +9.135000000000E+00 +6.000000000000E+00
+2.129830000000E+01 +1.040780000000E+01 +6.000000000000E+00
+2.269830000000E+01 +1.038330000000E+01 +6.000000000000E+00
+2.339190000000E+01 +1.159980000000E+01 +6.000000000000E+00
+2.479310000000E+01 +1.156100000000E+01 +6.000000000000E+00
+2.129500000000E+01 +1.287970000000E+01 +6.000000000000E+00
+2.269690000000E+01 +1.282570000000E+01 +6.000000000000E+00
+2.340430000000E+01 +1.402920000000E+01 +6.000000000000E+00
+2.480850000000E+01 +1.397610000000E+01 +6.000000000000E+00
+2.130270000000E+01 +1.538370000000E+01 +6.000000000000E+00
+2.271260000000E+01 +1.525570000000E+01 +6.000000000000E+00
+2.346900000000E+01 +1.641230000000E+01 +6.000000000000E+00
+2.486470000000E+01 +1.637360000000E+01 +6.000000000000E+00
+2.139230000000E+01 +1.792840000000E+01 +6.000000000000E+00
+2.281260000000E+01 +1.762230000000E+01 +6.000000000000E+00
+2.358230000000E+01 +1.876140000000E+01 +6.000000000000E+00
+2.494610000000E+01 +1.876140000000E+01 +6.000000000000E+00
+2.139230000000E+01 +1.959430000000E+01 +6.000000000000E+00
+2.281260000000E+01 +1.990040000000E+01 +6.000000000000E+00
+2.346900000000E+01 +2.111050000000E+01 +6.000000000000E+00
+2.486470000000E+01 +2.114910000000E+01 +6.000000000000E+00
+2.130270000000E+01 +2.213900000000E+01 +6.000000000000E+00
+2.271260000000E+01 +2.226700000000E+01 +6.000000000000E+00
+2.340430000000E+01 +2.349350000000E+01 +6.000000000000E+00
+2.480850000000E+01 +2.354660000000E+01 +6.000000000000E+00
+2.129500000000E+01 +2.464300000000E+01 +6.000000000000E+00
+2.269690000000E+01 +2.469700000000E+01 +6.000000000000E+00
+2.339190000000E+01 +2.592290000000E+01 +6.000000000000E+00
+2.479310000000E+01 +2.596170000000E+01 +6.000000000000E+00
+2.129830000000E+01 +2.711490000000E+01 +6.000000000000E+00
+2.269830000000E+01 +2.713940000000E+01 +6.000000000000E+00
+2.339090000000E+01 +2.836350000000E+01 +6.000000000000E+00
+2.479090000000E+01 +2.838770000000E+01 +6.000000000000E+00
+2.130170000000E+01 +2.957070000000E+01 +6.000000000000E+00
+2.270090000000E+01 +2.958280000000E+01 +6.000000000000E+00
+2.339270000000E+01 +3.080470000000E+01 +6.000000000000E+00
+2.479200000000E+01 +3.081910000000E+01 +6.000000000000E+00
+2.130400000000E+01 +3.201750000000E+01 +6.000000000000E+00
+2.270290000000E+01 +3.202400000000E+01 +6.000000000000E+00
+2.339470000000E+01 +3.324410000000E+01 +6.000000000000E+00
+2.479370000000E+01 +3.325240000000E+01 +6.000000000000E+00
+2.130550000000E+01 +3.445940000000E+01 +6.000000000000E+00
+2.270420000000E+01 +3.446280000000E+01 +6.000000000000E+00
+2.339620000000E+01 +3.568170000000E+01 +6.000000000000E+00
+2.479500000000E+01 +3.568610000000E+01 +6.000000000000E+00
+2.130640000000E+01 +3.689850000000E+01 +6.000000000000E+00
+2.270500000000E+01 +3.690000000000E+01 +6.000000000000E+00
+2.339690000000E+01 +3.811830000000E+01 +6.000000000000E+00
+2.479570000000E+01 +3.811960000000E+01 +6.000000000000E+00
+2.130660000000E+01 +3.933640000000E+01 +6.000000000000E+00
+2.270530000000E+01 +3.933640000000E+01 +6.000000000000E+00
+2.339690000000E+01 +4.055440000000E+01 +6.000000000000E+00
+2.479570000000E+01 +4.055310000000E+01 +6.000000000000E+00
+2.548900000000E+01 +6.197000000000E-01 +6.000000000000E+00
+2.688790000000E+01 +6.162000000000E-01 +6.000000000000E+00
+2.758370000000E+01 +1.830600000000E+00 +6.000000000000E+00
+2.898270000000E+01 +1.825400000000E+00 +6.000000000000E+00
+2.548820000000E+01 +3.053000000000E+00 +6.000000000000E+00
+2.688730000000E+01 +3.045600000000E+00 +6.000000000000E+00
+2.758390000000E+01 +4.259100000000E+00 +6.000000000000E+00
+2.898300000000E+01 +4.250300000000E+00 +6.000000000000E+00
+2.548740000000E+01 +5.486100000000E+00 +6.000000000000E+00
+2.688670000000E+01 +5.473800000000E+00 +6.000000000000E+00
+2.758550000000E+01 +6.685500000000E+00 +6.000000000000E+00
+2.898470000000E+01 +6.673400000000E+00 +6.000000000000E+00
+2.548780000000E+01 +7.917700000000E+00 +6.000000000000E+00
+2.688730000000E+01 +7.899700000000E+00 +6.000000000000E+00
+2.759030000000E+01 +9.108100000000E+00 +6.000000000000E+00
+2.898960000000E+01 +9.093700000000E+00 +6.000000000000E+00
+2.549170000000E+01 +1.034510000000E+01 +6.000000000000E+00
+2.689170000000E+01 +1.032110000000E+01 +6.000000000000E+00
+2.760180000000E+01 +1.152410000000E+01 +6.000000000000E+00
+2.900090000000E+01 +1.151070000000E+01 +6.000000000000E+00
+2.550500000000E+01 +1.276190000000E+01 +6.000000000000E+00
+2.690550000000E+01 +1.273640000000E+01 +6.000000000000E+00
+2.762690000000E+01 +1.393160000000E+01 +6.000000000000E+00
+2.902380000000E+01 +1.392470000000E+01 +6.000000000000E+00
+2.554370000000E+01 +1.515980000000E+01 +6.000000000000E+00
+2.694040000000E+01 +1.514490000000E+01 +6.000000000000E+00
+2.766500000000E+01 +1.633670000000E+01 +6.000000000000E+00
+2.905630000000E+01 +1.633820000000E+01 +6.000000000000E+00
+2.560640000000E+01 +1.755030000000E+01 +6.000000000000E+00
+2.699140000000E+01 +1.755030000000E+01 +6.000000000000E+00
+2.767850000000E+01 +1.876140000000E+01 +6.000000000000E+00
+2.906890000000E+01 +1.876140000000E+01 +6.000000000000E+00
+2.560640000000E+01 +1.997240000000E+01 +6.000000000000E+00
+2.699140000000E+01 +1.997240000000E+01 +6.000000000000E+00
+2.766500000000E+01 +2.118600000000E+01 +6.000000000000E+00
+2.905630000000E+01 +2.118450000000E+01 +6.000000000000E+00
+2.554370000000E+01 +2.236290000000E+01 +6.000000000000E+00
+2.694040000000E+01 +2.237780000000E+01 +6.000000000000E+00
+2.762690000000E+01 +2.359120000000E+01 +6.000000000000E+00
+2.902380000000E+01 +2.359800000000E+01 +6.000000000000E+00
+2.550500000000E+01 +2.476080000000E+01 +6.000000000000E+00
+2.690550000000E+01 +2.478630000000E+01 +6.000000000000E+00
+2.760180000000E+01 +2.599860000000E+01 +6.000000000000E+00
+2.900090000000E+01 +2.601200000000E+01 +6.000000000000E+00
+2.549170000000E+01 +2.717770000000E+01 +6.000000000000E+00
+2.689170000000E+01 +2.720160000000E+01 +6.000000000000E+00
+2.759030000000E+01 +2.841470000000E+01 +6.000000000000E+00
+2.898960000000E+01 +2.842900000000E+01 +6.000000000000E+00
+2.548780000000E+01 +2.960500000000E+01 +6.000000000000E+00
+2.688730000000E+01 +2.962310000000E+01 +6.000000000000E+00
+2.758550000000E+01 +3.083720000000E+01 +6.000000000000E+00
+2.898470000000E+01 +3.084930000000E+01 +6.000000000000E+00
+2.548740000000E+01 +3.203670000000E+01 +6.000000000000E+00
+2.688670000000E+01 +3.204890000000E+01 +6.000000000000E+00
+2.758390000000E+01 +3.326360000000E+01 +6.000000000000E+00
+2.898300000000E+01 +3.327240000000E+01 +6.000000000000E+00
+2.548820000000E+01 +3.446970000000E+01 +6.000000000000E+00
+2.688730000000E+01 +3.447710000000E+01 +6.000000000000E+00
+2.758370000000E+01 +3.569210000000E+01 +6.000000000000E+00
+2.898270000000E+01 +3.569730000000E+01 +6.000000000000E+00
+2.548900000000E+01 +3.690300000000E+01 +6.000000000000E+00
+2.688790000000E+01 +3.690650000000E+01 +6.000000000000E+00
+2.758380000000E+01 +3.812150000000E+01 +6.000000000000E+00
+2.898280000000E+01 +3.812320000000E+01 +6.000000000000E+00
+2.548930000000E+01 +3.933640000000E+01 +6.000000000000E+00
+2.688820000000E+01 +3.933640000000E+01 +6.000000000000E+00
+2.758380000000E+01 +4.055120000000E+01 +6.000000000000E+00
+2.898280000000E+01 +4.054950000000E+01 +6.000000000000E+00
+2.968070000000E+01 +6.122000000000E-01 +6.000000000000E+00
+3.107980000000E+01 +6.094000000000E-01 +6.000000000000E+00
+3.177990000000E+01 +1.820200000000E+00 +6.000000000000E+00
+3.317890000000E+01 +1.817200000000E+00 +6.000000000000E+00
+2.968140000000E+01 +3.037300000000E+00 +6.000000000000E+00
+3.108040000000E+01 +3.031800000000E+00 +6.000000000000E+00
+3.178160000000E+01 +4.241700000000E+00 +6.000000000000E+00
+3.318050000000E+01 +4.237300000000E+00 +6.000000000000E+00
+2.968340000000E+01 +5.460800000000E+00 +6.000000000000E+00
+3.108230000000E+01 +5.453200000000E+00 +6.000000000000E+00
+3.178530000000E+01 +6.661700000000E+00 +6.000000000000E+00
+3.318390000000E+01 +6.656600000000E+00 +6.000000000000E+00
+2.968790000000E+01 +7.881600000000E+00 +6.000000000000E+00
+3.108670000000E+01 +7.873100000000E+00 +6.000000000000E+00
+3.179220000000E+01 +9.079600000000E+00 +6.000000000000E+00
+3.319030000000E+01 +9.075300000000E+00 +6.000000000000E+00
+2.969710000000E+01 +1.029880000000E+01 +6.000000000000E+00
+3.109550000000E+01 +1.029130000000E+01 +6.000000000000E+00
+3.180380000000E+01 +1.149580000000E+01 +6.000000000000E+00
+3.320110000000E+01 +1.149380000000E+01 +6.000000000000E+00
+2.971410000000E+01 +1.271180000000E+01 +6.000000000000E+00
+3.111120000000E+01 +1.270830000000E+01 +6.000000000000E+00