#input file for graphene first energy minimization trial
units metal
dimension 2
processors * * * 
boundary p p p

# read data
atom_style charge
read_data grap.data

pair_style          airebo 3.0 0 0
pair_coeff          * * CH.airebo  C 

#initial minimization
dump     mydmp all atom 1 dump.lammpstrj
neigh_modify    every 1 delay 5 check yes

thermo		10
minimize	0.0 1.0e-10 100000 1000000 

write_data  outputgen.data
