k-points along high symmetry lines
 100  ! 100 intersections 
Line-mode
rec
  0.500000000  0.50000000  0.0000   ! M
  0.000000000  0.00000000  0.0000   ! gamma

  0.000000000  0.00000000  0.0000   ! gamma
  0.333333333  0.66666667  0.0000   ! K
  
  0.333333333  0.66666667  0.0000   ! K
  0.500000000  0.50000000  0.0000   ! M

