#input file for graphene first energy minimization trial
units metal
dimension 2
processors * * * 
boundary p p p

# read data
atom_modify map yes
atom_style charge
read_data grap.data

group left id 1:136
group right id 545:680

pair_style          airebo 3.0 0 0
pair_coeff          * * CH.airebo  C 




#initial minimization
dump     mydmp all atom 1 dump.lammpstrj
neigh_modify    every 1 delay 5 check yes

thermo		10
fix 1 left setforce 0.0 0.0 0.0
fix 2 right setforce 0.0 0.0 0.0
unfix 1
unfix 2


minimize	0.0 1.0e-10 100000 1000000 
dynamical_matrix all eskm 0.00000001 file dynmat.dat

write_data  outputgen.data
