ISTART = 0
ICHARG = 2

PREC = Accurate 
IBRION = -1
EDIFF = 0.00000001
NSW = 0
NELM = 100
ENCUT = 520

ISMEAR = 1
SIGMA = 0.1

ISYM = 0
LWAVE = .FALSE.
LCHARG = .FALSE.
NCORE = 4
LMAXMIX = 4
