monoatomic chain
1
  1.42  0.00000  0.0000000
  0.0000 12.00  0.0000000
 0.0000000000000000   0.00000000000  12.000000
  C 
  1
C
0.7 6 6
