Monkhorst Pack
0
Monkhorst Pack 
21 21 1
0 0 0 
